59 300 134 111 118 120 104 121 142 119 120 131 149 106 114 129 136 112 145 142 115 131 116 134 143 130 137 111 109 132 101 128 119 109 140 137 129 118 132 145 111 101 125 109 108 139 113 118 125 107 110 114 113 100 148 130 130 135 141 113 141 